data/mip_solutions/furman_sahinidis/transshipment/12sp1_cplex.sol
Elapsed time: 0.0468118190765
Nodes explored: 6
Upper bound: 12.0
Lower bound: 12.0
y[0,0]=1
y[0,1]=1
y[1,1]=1
y[2,1]=1
y[2,2]=1
y[3,0]=1
y[4,0]=1
y[5,0]=1
y[6,0]=1
y[7,0]=1
y[8,2]=1
y[9,1]=1
q[0,0,10]=27476.47
q[0,0,12]=11489.793
q[0,1,1]=28992.816
q[0,1,2]=42683.868
q[0,1,3]=12080.34
q[0,1,5]=5127.384
q[0,1,6]=40799.92
q[0,1,7]=18098.498
q[0,1,9]=1704.215
q[1,1,2]=23565.708
q[1,1,4]=12449.808
q[1,1,5]=6447.222
q[1,1,6]=16517.321
q[1,1,8]=9049.249
q[1,1,9]=7114.176
q[2,1,5]=9896.54
q[2,1,6]=10140.797
q[2,1,9]=24087.969
q[2,2,6]=5670.259
q[2,2,7]=3042.578
q[2,2,8]=1521.289
q[2,2,9]=2119.84
q[2,2,10]=9725.168
q[3,0,10]=44846.46
q[4,0,11]=12826.5
q[5,0,12]=4079.025
q[6,0,10]=9543.206
q[6,0,11]=10741.024
q[7,0,12]=3037.122
q[8,2,9]=3412.12
q[8,2,10]=8530.3
q[9,1,0]=30438.383
q[9,1,1]=30238.632
q[9,1,2]=20952.278
q[9,1,3]=12599.43
q[9,1,4]=8939.326
q[9,1,5]=2385.965
r[0,5]=10469.628
r[0,6]=17019.906
r[0,7]=9239.582
r[0,9]=4429.458
r[0,10]=18832.363
r[0,11]=11489.793
r[0,12]=11489.793
r[1,4]=6669.54
r[1,7]=1712.755
r[1,8]=6603.751
r[2,7]=12172.264
r[2,8]=16637.406
r[2,9]=18869.977
r[2,10]=6312.568
r[3,9]=6090.26
r[3,10]=28236.66
r[4,4]=1131.75
r[4,5]=2112.6
r[4,6]=3206.625
r[4,7]=6300.075
r[4,8]=7130.025
r[4,9]=7545.0
r[4,10]=9054.0
r[4,11]=12826.5
r[5,5]=2356.77
r[5,6]=4079.025
r[5,7]=4079.025
r[5,8]=4079.025
r[5,9]=4079.025
r[5,10]=4079.025
r[5,11]=4079.025
r[5,12]=4079.025
r[6,7]=6522.772
r[6,8]=8272.784
r[6,9]=9147.79
r[6,10]=12329.63
r[6,11]=10741.024
r[7,8]=2024.748
r[7,9]=3037.122
r[7,10]=3037.122
r[7,11]=3037.122
r[7,12]=3037.122
r[9,1]=75115.631
r[9,2]=44876.999
r[9,3]=23924.721
r[9,4]=11325.291
r[9,5]=2385.965
